70
    1    35    36
    2    36    36
    3    52    50
    4    31    37
    5     9     4
    6    34    36
    7    34    39
    8    53    54
    9    32    25
   10    33    26
   11    69    64
   12    22    27
   13    33    38
   14    54    58
   15    35    41
   16    36    35
   17    65    59
   18     1     4
   19    59    59
   20     3     4
   21     8     9
   22     1     4
   23    15     8
   24    49    53
   25    62    63
   26    35    30
   27    29    32
   28    53    46
   29    67    68
   30    47    45
   31    18    22
   32    45    44
   33    53    60
   34    62    61
   35    64    58
   36    62    55
   37    61    60
   38     1     1
   39    18    12
   40    56    63
   41    42    39
   42    44    44
   43    41    34
   44    11    12
   45    48    41
   46    33    33
   47    34    32
   48    77    70
   49    43    43
   50    21    26
   51    24    17
   52    57    64
   53    13     7
   54    64    64
   55    57    59
   56    71    64
   57    43    41
   58    19    13
   59    32    34
   60    13    14
   61    66    67
   62    68    65
   63    21    28
   64    38    31
   65     7    10
   66    61    66
   67    36    31
   68    43    41
   69    48    44
   70    69    70
71
